17	4
24	23	25	33	
0	0	0	0	0	3	2	3	4	
2	1	2	4	0	3	10	11	17	
5	0	5	9	10	3	9	15	16	
151	8	10	10	0	3	5	6	7	
4	8	3	0	8	1	8	
51	3	1	8	5	1	17	
9	5	0	5	10	2	14	17	
227	4	0	0	3	3	12	13	17	
102	8	0	8	10	1	10	
8	0	0	0	5	1	17	
7	1	6	6	6	1	17	
10	2	10	3	8	1	17	
26	10	8	2	8	1	17	
25	1	3	6	1	1	17	
1	4	0	9	9	1	17	
126	0	9	6	9	1	17	
0	0	0	0	0	0	
